146 171 128 58 31 47 6 65 162 183 187 22 91 1 41 81 122 69 54 33 194 174 132 129 71 196 199 139 190 173 136 168 8 175 126 93 178 74 123 76 92 45 195 133 70 20 72 99 102 156 191 118 181 140 185 186 169 61 83 2 115 84 112 96 5 60 77 142 198 51 67 82 151 109 32 100 26 55 48 159 73 29 50 79 57 21 59 34 0 143 148 160 111 49 124 103 165 86 80 97 7 63 176 138 89 16 114 12 182 164 53 119 35 10 98 40 56 144 44 153 192 125 172 113 64 30 9 42 127 43 107 108 75 39 46 13 94 68 166 157 110 121 36 104 180 38 90 116 179 66 141 167 62 131 170 88 117 163 27 193 130 25 120 19 28 37 158 149 85 95 137 52 17 23 154 87 15 101 134 184 3 18 4 106 105 161 189 188 155 11 24 135 177 150 145 14 197 78 147 152 

